p cnf 33 102
-4 -2 0
-4 -3 0
2 3 4 0
-5 1 0
-5 4 0
-1 -4 5 0
-8 -6 0
-8 7 0
6 -7 8 0
9 10 -11 0
-9 -10 -11 0
9 -10 11 0
-9 10 11 0
12 -8 0
12 -11 0
8 11 -12 0
5 -12 -13 0
-5 12 -13 0
5 12 13 0
-5 -12 13 0
14 -13 0
14 4 0
13 -4 -14 0
7 -4 -15 0
-7 4 -15 0
7 4 15 0
-7 -4 15 0
14 15 -16 0
-14 -15 -16 0
14 -15 16 0
-14 15 16 0
18 10 0
18 17 0
-10 -17 -18 0
19 -16 0
19 -18 0
16 18 -19 0
-21 -5 0
-21 -20 0
5 20 21 0
-7 -11 -22 0
7 11 -22 0
-7 11 22 0
7 -11 22 0
22 13 -23 0
-22 -13 -23 0
22 -13 23 0
-22 13 23 0
24 -21 0
24 23 0
21 -23 -24 0
-25 -19 0
-25 24 0
19 -24 25 0
6 17 -26 0
-6 -17 -26 0
6 -17 26 0
-6 17 26 0
-27 4 0
-27 26 0
-4 -26 27 0
-28 -4 0
-28 -7 0
4 7 28 0
30 -5 0
30 -29 0
5 29 -30 0
-28 -30 -31 0
28 30 -31 0
-28 30 31 0
28 -30 31 0
32 27 0
32 -31 0
-27 31 -32 0
25 -32 -33 0
-25 32 -33 0
25 32 33 0
-25 -32 33 0
-10 15 25 0
-31 25 22 33 0
-5 -24 21 7 25 31 0
-27 6 9 32 0
5 -31 -14 -18 -22 0
21 -5 10 0
-1 14 -9 17 0
-22 -24 -5 0
2 22 31 0
9 -6 -24 -31 -25 0
20 17 -6 0
13 -1 -18 -32 5 0
16 4 3 -27 10 0
8 -14 -22 0
-33 21 20 0
-28 5 -21 22 -11 0
-15 -22 -28 -5 -10 0
17 26 -11 1 -23 -16 0
-11 32 31 0
-32 -19 0
-19 -2 0
-1 6 0
-17 -23 -21 0
33 0
